c Command line: hgen8 110 20
p cnf 110 176
22 78 104 23 0
17 96 74 11 0
76 72 55 106 0
38 14 64 68 0
21 89 30 58 0
54 65 61 41 0
10 26 101 15 0
32 5 108 34 0
57 98 62 93 0
49 66 12 9 0
4 7 19 69 0
77 92 94 2 0
88 40 1 73 0
52 36 56 105 0
100 90 8 83 0
46 13 70 45 0
71 53 75 39 0
37 103 85 102 0
42 20 97 44 0
87 84 31 95 0
25 3 35 27 0
99 43 50 91 0
51 110 60 79 0
-1 -2 0
-1 -3 0
-1 -4 0
-1 -5 0
-2 -3 0
-2 -4 0
-2 -5 0
-3 -4 0
-3 -5 0
-4 -5 0
-7 -8 0
-7 -9 0
-7 -10 0
-8 -9 0
-8 -10 0
-9 -10 0
-11 -12 0
-11 -13 0
-11 -14 0
-11 -15 0
-12 -13 0
-12 -14 0
-12 -15 0
-13 -14 0
-13 -15 0
-14 -15 0
-17 -19 0
-17 -20 0
-19 -20 0
-21 -22 0
-21 -23 0
-21 -25 0
-22 -23 0
-22 -25 0
-23 -25 0
-26 -27 0
-26 -30 0
-27 -30 0
-31 -32 0
-31 -34 0
-31 -35 0
-32 -34 0
-32 -35 0
-34 -35 0
-36 -37 0
-36 -38 0
-36 -39 0
-36 -40 0
-37 -38 0
-37 -39 0
-37 -40 0
-38 -39 0
-38 -40 0
-39 -40 0
-41 -42 0
-41 -43 0
-41 -44 0
-41 -45 0
-42 -43 0
-42 -44 0
-42 -45 0
-43 -44 0
-43 -45 0
-44 -45 0
-46 -49 0
-46 -50 0
-49 -50 0
-51 -52 0
-51 -53 0
-51 -54 0
-51 -55 0
-52 -53 0
-52 -54 0
-52 -55 0
-53 -54 0
-53 -55 0
-54 -55 0
-56 -57 0
-56 -58 0
-56 -60 0
-57 -58 0
-57 -60 0
-58 -60 0
-61 -62 0
-61 -64 0
-61 -65 0
-62 -64 0
-62 -65 0
-64 -65 0
-66 -68 0
-66 -69 0
-66 -70 0
-68 -69 0
-68 -70 0
-69 -70 0
-71 -72 0
-71 -73 0
-71 -74 0
-71 -75 0
-72 -73 0
-72 -74 0
-72 -75 0
-73 -74 0
-73 -75 0
-74 -75 0
-76 -77 0
-76 -78 0
-76 -79 0
-77 -78 0
-77 -79 0
-78 -79 0
-83 -84 0
-83 -85 0
-84 -85 0
-87 -88 0
-87 -89 0
-87 -90 0
-88 -89 0
-88 -90 0
-89 -90 0
-91 -92 0
-91 -93 0
-91 -94 0
-91 -95 0
-92 -93 0
-92 -94 0
-92 -95 0
-93 -94 0
-93 -95 0
-94 -95 0
-96 -97 0
-96 -98 0
-96 -99 0
-96 -100 0
-97 -98 0
-97 -99 0
-97 -100 0
-98 -99 0
-98 -100 0
-99 -100 0
-101 -102 0
-101 -103 0
-101 -104 0
-101 -105 0
-102 -103 0
-102 -104 0
-102 -105 0
-103 -104 0
-103 -105 0
-104 -105 0
-106 -108 0
-106 -110 0
-108 -110 0
